9
Coordinates from ORCA-job min E -267.111865138983
  O          -1.25312073042013      1.18004621003899     -0.00050914207292
  C          -1.20586055025972     -0.06500348444209      0.00016983295007
  C           0.01998827078931     -0.79973759718492      0.00007413432197
  C           1.20405726885918     -0.11662988893566     -0.00006376675945
  O           1.28247011430075      1.19705152646323      0.00006828752108
  H           0.31920431034289      1.51697545831971      0.00038986468366
  H          -2.15250787996812     -0.63649414854547      0.00003191706882
  H           0.01527584062120     -1.88264646006160      0.00007002015167
  H           2.17200222573465     -0.61792224565219     -0.00023114786490
