9
Coordinates from ORCA-job min E -267.111038168168
  O      -1.302404      1.156070      0.000000
  C      -1.227015     -0.069903      0.000000
  C       0.019794     -0.796301      0.000000
  C       1.192349     -0.118325      0.000000
  O       1.307156      1.197488      0.000000
  H       0.392006      1.569336      0.000000
  H      -2.153807     -0.660815      0.000000
  H       0.024502     -1.873798      0.000000
  H       2.148929     -0.628112      0.000000
9
Coordinates from ORCA-job min E -267.111511268465
  O      -1.300282      1.166030     -0.000000
  C      -1.226016     -0.068239     -0.000000
  C       0.018200     -0.793548     -0.000000
  C       1.197982     -0.117389     -0.000000
  O       1.308752      1.199202      0.000000
  H       0.381996      1.560215      0.000000
  H      -2.159103     -0.665623      0.000000
  H       0.019785     -1.876592     -0.000000
  H       2.160195     -0.628418     -0.000000
9
Coordinates from ORCA-job min E -267.111708377998
  O      -1.287305      1.173470      0.000000
  C      -1.220277     -0.066967     -0.000000
  C       0.016930     -0.792815     -0.000000
  C       1.201495     -0.117418      0.000000
  O       1.302502      1.199503     -0.000000
  H       0.363347      1.544926     -0.000000
  H      -2.156938     -0.662199     -0.000000
  H       0.014916     -1.877393     -0.000000
  H       2.166837     -0.625466      0.000000
9
Coordinates from ORCA-job min E -267.111813844776
  O      -1.269442      1.178815     -0.000000
  C      -1.212687     -0.065545      0.000000
  C       0.017084     -0.794395      0.000000
  C       1.203686     -0.117801     -0.000000
  O       1.292097      1.198582      0.000000
  H       0.340337      1.528061      0.000000
  H      -2.153011     -0.652293      0.000000
  H       0.012260     -1.878715      0.000000
  H       2.171183     -0.621069     -0.000000
9
Coordinates from ORCA-job min E -267.111853059370
  O      -1.257101      1.180681      0.000002
  C      -1.207667     -0.064768     -0.000001
  C       0.018331     -0.797144     -0.000000
  C       1.204411     -0.117853      0.000000
  O       1.284638      1.197369     -0.000000
  H       0.324618      1.518597     -0.000002
  H      -2.151151     -0.642560     -0.000000
  H       0.012655     -1.880573     -0.000000
  H       2.172776     -0.618109      0.000001
9
Coordinates from ORCA-job min E -267.111863250534
  O      -1.253328      1.180478     -0.000014
  C      -1.206093     -0.064705      0.000005
  C       0.019428     -0.798973      0.000002
  C       1.204347     -0.117414     -0.000002
  O       1.282445      1.196796      0.000002
  H       0.319411      1.516570      0.000011
  H      -2.151477     -0.637794      0.000001
  H       0.014115     -1.881889      0.000002
  H       2.172661     -0.617430     -0.000006
9
Coordinates from ORCA-job min E -267.111864925300
  O      -1.252929      1.180178      0.000082
  C      -1.205837     -0.064849     -0.000029
  C       0.019894     -0.799629     -0.000012
  C       1.204157     -0.116916      0.000011
  O       1.282289      1.196857     -0.000010
  H       0.318846      1.516667     -0.000064
  H      -2.152178     -0.636540     -0.000004
  H       0.014978     -1.882502     -0.000012
  H       2.172289     -0.617627      0.000038
9
Coordinates from ORCA-job min E -267.111865138983
  O      -1.253121      1.180046     -0.000509
  C      -1.205861     -0.065003      0.000170
  C       0.019988     -0.799738      0.000074
  C       1.204057     -0.116630     -0.000064
  O       1.282470      1.197052      0.000068
  H       0.319204      1.516975      0.000390
  H      -2.152508     -0.636494      0.000032
  H       0.015276     -1.882646      0.000070
  H       2.172002     -0.617922     -0.000231
