9
Coordinates from ORCA-job ts E -267.109587730942
  O          -1.18440904188736      1.17725636864086      0.00000001788321
  C          -1.18454114469375     -0.10329251370652     -0.00000000249912
  C           0.00418682488876     -0.83599428513613     -0.00000000461553
  C           1.19129575628245     -0.10069886704077      0.00000000045179
  O           1.18839236712003      1.17987116335967     -0.00000001825347
  H           0.00183281318050      1.41955524735267     -0.00000000233710
  H          -2.16136063107360     -0.60188048741846     -0.00000000219105
  H           0.00539380307685     -1.91768439606409     -0.00000000427148
  H           2.16920925310611     -0.59713222998723      0.00000001583276
