9
Coordinates from ORCA-job ts E -267.100747533245
  O      -1.240000      1.170000      0.000000
  C      -1.220000     -0.070000      0.000000
  C       0.010000     -0.800000      0.000000
  C       1.230000     -0.070000      0.000000
  O       1.240000      1.170000      0.000000
  H       0.000000      1.420000      0.000000
  H      -2.150000     -0.660000      0.000000
  H       0.010000     -1.880000      0.000000
  H       2.150000     -0.660000      0.000000
9
Coordinates from ORCA-job ts E -267.109446393097
  O      -1.177412      1.175250     -0.000000
  C      -1.183324     -0.099642      0.000000
  C       0.003803     -0.833315     -0.000000
  C       1.190157     -0.096912     -0.000000
  O       1.181654      1.177768      0.000000
  H       0.002638      1.415925     -0.000000
  H      -2.155884     -0.605239      0.000000
  H       0.004651     -1.914768     -0.000000
  H       2.163718     -0.599066      0.000000
9
Coordinates from ORCA-job ts E -267.109580184329
  O      -1.186216      1.176281      0.000000
  C      -1.184481     -0.103237     -0.000000
  C       0.004140     -0.835633     -0.000000
  C       1.191050     -0.100851     -0.000000
  O       1.190106      1.178722     -0.000000
  H       0.002100      1.419772      0.000000
  H      -2.161436     -0.601452      0.000000
  H       0.005298     -1.917302     -0.000000
  H       2.169439     -0.596302      0.000000
9
Coordinates from ORCA-job ts E -267.109587490454
  O      -1.184495      1.177041     -0.000000
  C      -1.184619     -0.103302      0.000000
  C       0.004215     -0.836143      0.000000
  C       1.191327     -0.100764     -0.000000
  O       1.188352      1.179649      0.000000
  H       0.001955      1.419436      0.000000
  H      -2.161685     -0.601427      0.000000
  H       0.005409     -1.917834     -0.000000
  H       2.169541     -0.596656     -0.000000
9
Coordinates from ORCA-job ts E -267.109587730942
  O      -1.184409      1.177256      0.000000
  C      -1.184541     -0.103293     -0.000000
  C       0.004187     -0.835994     -0.000000
  C       1.191296     -0.100699      0.000000
  O       1.188392      1.179871     -0.000000
  H       0.001833      1.419555     -0.000000
  H      -2.161361     -0.601880     -0.000000
  H       0.005394     -1.917684     -0.000000
  H       2.169209     -0.597132      0.000000
