9
Coordinates from ORCA-job irc_IRC_B E -267.109917714410
  O      -1.179442      1.183919     -0.000000
  C      -1.180044     -0.114446     -0.000000
  C      -0.002973     -0.836003      0.000000
  C       1.195766     -0.089536     -0.000000
  O       1.193352      1.173220      0.000000
  H      -0.168490      1.419338     -0.000000
  H      -2.162874     -0.590805      0.000000
  H      -0.000391     -1.917691     -0.000000
  H       2.167722     -0.608201     -0.000000
9
Coordinates from ORCA-job irc_IRC_B E -267.110571713506
  O      -1.191131      1.182884     -0.000000
  C      -1.181314     -0.117499     -0.000000
  C      -0.003432     -0.835655      0.000000
  C       1.197585     -0.089674     -0.000000
  O       1.201430      1.172265      0.000000
  H      -0.164634      1.425284     -0.000000
  H      -2.162995     -0.591224      0.000000
  H      -0.000618     -1.917731     -0.000000
  H       2.167738     -0.608855     -0.000000
9
Coordinates from ORCA-job irc_IRC_B E -267.110790170524
  O      -1.197035      1.182444     -0.000000
  C      -1.181981     -0.119251     -0.000000
  C      -0.003960     -0.835143     -0.000000
  C       1.199060     -0.089347     -0.000000
  O       1.207174      1.171269      0.000000
  H      -0.164269      1.429774     -0.000000
  H      -2.163644     -0.592407      0.000000
  H      -0.000758     -1.917556     -0.000000
  H       2.168040     -0.609987     -0.000000
9
Coordinates from ORCA-job irc_IRC_B E -267.110980682027
  O      -1.203509      1.182098     -0.000000
  C      -1.182918     -0.121316      0.000000
  C      -0.004781     -0.833980      0.000000
  C       1.201727     -0.088630     -0.000000
  O       1.216708      1.169509     -0.000000
  H      -0.167437      1.437449     -0.000000
  H      -2.165107     -0.595448      0.000000
  H      -0.000955     -1.916846     -0.000000
  H       2.168899     -0.613041     -0.000000
9
Coordinates from ORCA-job irc_IRC_B E -267.111159924355
  O      -1.203305      1.183061     -0.000000
  C      -1.183300     -0.121777      0.000000
  C      -0.004880     -0.832106      0.000000
  C       1.204849     -0.088413     -0.000000
  O       1.225642      1.168013     -0.000000
  H      -0.179522      1.444528     -0.000000
  H      -2.165871     -0.599598      0.000000
  H      -0.001048     -1.915074     -0.000000
  H       2.170063     -0.618837     -0.000000
9
Coordinates from ORCA-job irc_IRC_B E -267.111320317741
  O      -1.209144      1.183981     -0.000000
  C      -1.182408     -0.122838      0.000000
  C      -0.004255     -0.830545      0.000000
  C       1.208434     -0.088732     -0.000000
  O       1.235019      1.166292     -0.000000
  H      -0.190814      1.450653     -0.000000
  H      -2.163373     -0.600620      0.000000
  H      -0.001153     -1.913283     -0.000000
  H       2.170322     -0.625112     -0.000000
9
Coordinates from ORCA-job irc_IRC_B E -267.111452144339
  O      -1.209854      1.185427      0.000000
  C      -1.181116     -0.122671     -0.000000
  C      -0.003567     -0.828495     -0.000000
  C       1.211933     -0.088924     -0.000000
  O       1.241688      1.164490     -0.000000
  H      -0.204218      1.456256     -0.000000
  H      -2.162338     -0.602854      0.000000
  H      -0.001184     -1.911681     -0.000000
  H       2.171284     -0.631752      0.000000
9
Coordinates from ORCA-job irc_IRC_B E -267.111500581098
  O      -1.213060      1.185554      0.000000
  C      -1.180827     -0.123126      0.000000
  C      -0.003275     -0.827890     -0.000000
  C       1.213164     -0.089570     -0.000000
  O       1.245057      1.164061     -0.000000
  H      -0.207464      1.458877     -0.000000
  H      -2.161206     -0.603022      0.000000
  H      -0.001227     -1.911121     -0.000000
  H       2.171465     -0.633968     -0.000000
9
Coordinates from ORCA-job irc_IRC_B E -267.111527795769
  O      -1.213968      1.185725      0.000000
  C      -1.180745     -0.123055     -0.000000
  C      -0.003024     -0.827762     -0.000000
  C       1.213904     -0.089272     -0.000000
  O       1.246727      1.163304     -0.000000
  H      -0.209905      1.460258     -0.000000
  H      -2.160742     -0.603357      0.000000
  H      -0.001261     -1.910689     -0.000000
  H       2.171642     -0.635356      0.000000
9
Coordinates from ORCA-job irc_IRC_B E -267.111557777312
  O      -1.215065      1.185931      0.000000
  C      -1.180574     -0.122997     -0.000000
  C      -0.002743     -0.827456     -0.000000
  C       1.214794     -0.089144     -0.000000
  O       1.248773      1.162554     -0.000000
  H      -0.212914      1.461965     -0.000000
  H      -2.160200     -0.603785      0.000000
  H      -0.001303     -1.910217     -0.000000
  H       2.171860     -0.637055     -0.000000
9
Coordinates from ORCA-job irc_IRC_B E -267.111587270505
  O      -1.216205      1.186247      0.000000
  C      -1.180260     -0.123110      0.000000
  C      -0.002557     -0.826926     -0.000000
  C       1.215758     -0.089456     -0.000000
  O       1.250908      1.162125     -0.000000
  H      -0.216075      1.463759      0.000000
  H      -2.159660     -0.604243      0.000000
  H      -0.001341     -1.909791     -0.000000
  H       2.172060     -0.638809     -0.000000
9
Coordinates from ORCA-job irc_IRC_B E -267.111614899146
  O      -1.217368      1.186474      0.000000
  C      -1.180055     -0.123085      0.000000
  C      -0.002296     -0.826554     -0.000000
  C       1.216686     -0.089452     -0.000000
  O       1.253006      1.161441     -0.000000
  H      -0.219129      1.465558      0.000000
  H      -2.159106     -0.604708      0.000000
  H      -0.001393     -1.909313     -0.000000
  H       2.172284     -0.640565     -0.000000
9
Coordinates from ORCA-job irc_IRC_B E -267.111641187336
  O      -1.218531      1.186787      0.000000
  C      -1.179748     -0.123195      0.000000
  C      -0.002109     -0.826012     -0.000000
  C       1.217645     -0.089797     -0.000000
  O       1.255116      1.161023     -0.000000
  H      -0.222217      1.467377      0.000000
  H      -2.158564     -0.605189      0.000000
  H      -0.001445     -1.908885     -0.000000
  H       2.172482     -0.642313     -0.000000
9
Coordinates from ORCA-job irc_IRC_B E -267.111665841984
  O      -1.219716      1.187018      0.000000
  C      -1.179542     -0.123161      0.000000
  C      -0.001852     -0.825627     -0.000000
  C       1.218573     -0.089828     -0.000000
  O       1.257211      1.160351     -0.000000
  H      -0.225236      1.469204      0.000000
  H      -2.158006     -0.605680      0.000000
  H      -0.001510     -1.908404     -0.000000
  H       2.172704     -0.644076     -0.000000
9
Coordinates from ORCA-job irc_IRC_B E -267.111689127734
  O      -1.220905      1.187324      0.000000
  C      -1.179249     -0.123251      0.000000
  C      -0.001658     -0.825086     -0.000000
  C       1.219529     -0.090170     -0.000000
  O       1.259319      1.159910     -0.000000
  H      -0.228279      1.471051     -0.000000
  H      -2.157453     -0.606185      0.000000
  H      -0.001575     -1.907968     -0.000000
  H       2.172899     -0.645830     -0.000000
