9
Coordinates from ORCA-job irc_IRC_F E -267.109916310825
  O      -1.189376      1.170593      0.000000
  C      -1.189038     -0.092140      0.000000
  C       0.011347     -0.835985     -0.000000
  C       1.186826     -0.111862      0.000000
  O       1.183432      1.186522     -0.000000
  H       0.172156      1.419772      0.000000
  H      -2.159848     -0.612955     -0.000000
  H       0.011179     -1.917677      0.000000
  H       2.170696     -0.586063      0.000000
9
Coordinates from ORCA-job irc_IRC_F E -267.110572831696
  O      -1.197460      1.169623      0.000000
  C      -1.190854     -0.092282      0.000000
  C       0.011810     -0.835635     -0.000000
  C       1.188107     -0.114916      0.000000
  O       1.195148      1.185503     -0.000000
  H       0.168263      1.425717      0.000000
  H      -2.159863     -0.613608     -0.000000
  H       0.011404     -1.917716      0.000000
  H       2.170817     -0.586482      0.000000
9
Coordinates from ORCA-job irc_IRC_F E -267.110791783879
  O      -1.203206      1.168616      0.000000
  C      -1.192328     -0.091958     -0.000000
  C       0.012339     -0.835120     -0.000000
  C       1.188781     -0.116669      0.000000
  O       1.201061      1.185072      0.000000
  H       0.167877      1.430211      0.000000
  H      -2.160162     -0.614741     -0.000000
  H       0.011541     -1.917540      0.000000
  H       2.171469     -0.587668      0.000000
9
Coordinates from ORCA-job irc_IRC_F E -267.110982399846
  O      -1.212737      1.166840      0.000000
  C      -1.194992     -0.091245     -0.000000
  C       0.013162     -0.833954     -0.000000
  C       1.189727     -0.118732      0.000000
  O       1.207538      1.184735      0.000000
  H       0.171012      1.437892      0.000000
  H      -2.161010     -0.617795     -0.000000
  H       0.011731     -1.916827      0.000000
  H       2.172942     -0.590712      0.000000
9
Coordinates from ORCA-job irc_IRC_F E -267.111161660699
  O      -1.221676      1.165325     -0.000000
  C      -1.198111     -0.091034      0.000000
  C       0.013259     -0.832077      0.000000
  C       1.190117     -0.119193     -0.000000
  O       1.207332      1.185697      0.000000
  H       0.183071      1.445002      0.000000
  H      -2.162155     -0.623592     -0.000000
  H       0.011813     -1.915052      0.000000
  H       2.173722     -0.594871     -0.000000
9
Coordinates from ORCA-job irc_IRC_F E -267.111322040034
  O      -1.231053      1.163585     -0.000000
  C      -1.201694     -0.091361      0.000000
  C       0.012633     -0.830514      0.000000
  C       1.189231     -0.120255      0.000000
  O       1.213171      1.186629     -0.000000
  H       0.194344      1.451153      0.000000
  H      -2.162397     -0.629873     -0.000000
  H       0.011909     -1.913258      0.000000
  H       2.171228     -0.595903     -0.000000
9
Coordinates from ORCA-job irc_IRC_F E -267.111453823055
  O      -1.237721      1.161767     -0.000000
  C      -1.205193     -0.091560      0.000000
  C       0.011940     -0.828463      0.000000
  C       1.187939     -0.120088      0.000000
  O       1.213879      1.188079     -0.000000
  H       0.207733      1.456783      0.000000
  H      -2.163339     -0.636518     -0.000000
  H       0.011933     -1.911654     -0.000000
  H       2.170200     -0.598141     -0.000000
9
Coordinates from ORCA-job irc_IRC_F E -267.111502185413
  O      -1.241084      1.161332     -0.000000
  C      -1.206420     -0.092209      0.000000
  C       0.011649     -0.827859      0.000000
  C       1.187653     -0.120542      0.000000
  O       1.217082      1.188213      0.000000
  H       0.210965      1.459407      0.000000
  H      -2.163514     -0.638734     -0.000000
  H       0.011973     -1.911093     -0.000000
  H       2.169068     -0.598311     -0.000000
9
Coordinates from ORCA-job irc_IRC_F E -267.111529374878
  O      -1.242751      1.160572     -0.000000
  C      -1.207160     -0.091913      0.000000
  C       0.011397     -0.827732      0.000000
  C       1.187571     -0.120471      0.000000
  O       1.217991      1.188385      0.000000
  H       0.213399      1.460793      0.000000
  H      -2.163688     -0.640122     -0.000000
  H       0.012007     -1.910660      0.000000
  H       2.168606     -0.598647     -0.000000
9
Coordinates from ORCA-job irc_IRC_F E -267.111559343391
  O      -1.244796      1.159818     -0.000000
  C      -1.208050     -0.091788      0.000000
  C       0.011116     -0.827425      0.000000
  C       1.187401     -0.120413      0.000000
  O       1.219088      1.188594      0.000000
  H       0.216403      1.462505      0.000000
  H      -2.163901     -0.641822     -0.000000
  H       0.012047     -1.910188      0.000000
  H       2.168065     -0.599077     -0.000000
9
Coordinates from ORCA-job irc_IRC_F E -267.111588823215
  O      -1.246930      1.159383     -0.000000
  C      -1.209013     -0.092103     -0.000000
  C       0.010928     -0.826895      0.000000
  C       1.187088     -0.120526      0.000000
  O       1.220227      1.188913      0.000000
  H       0.219560      1.464307      0.000000
  H      -2.164097     -0.643578     -0.000000
  H       0.012084     -1.909761      0.000000
  H       2.167525     -0.599536     -0.000000
9
Coordinates from ORCA-job irc_IRC_F E -267.111616434937
  O      -1.249027      1.158695     -0.000000
  C      -1.209941     -0.092100      0.000000
  C       0.010667     -0.826524      0.000000
  C       1.186883     -0.120501      0.000000
  O       1.221390      1.189143     -0.000000
  H       0.222609      1.466112      0.000000
  H      -2.164317     -0.645336     -0.000000
  H       0.012136     -1.909283      0.000000
  H       2.166972     -0.600002     -0.000000
9
Coordinates from ORCA-job irc_IRC_F E -267.111642701918
  O      -1.251137      1.158272     -0.000000
  C      -1.210899     -0.092449      0.000000
  C       0.010480     -0.825982      0.000000
  C       1.186577     -0.120611      0.000000
  O       1.222552      1.189459     -0.000000
  H       0.225692      1.467938      0.000000
  H      -2.164510     -0.647086     -0.000000
  H       0.012186     -1.908854      0.000000
  H       2.166432     -0.600484     -0.000000
9
Coordinates from ORCA-job irc_IRC_F E -267.111667330663
  O      -1.253230      1.157595     -0.000000
  C      -1.211828     -0.092483     -0.000000
  C       0.010221     -0.825597      0.000000
  C       1.186371     -0.120577      0.000000
  O       1.223737      1.189693      0.000000
  H       0.228705      1.469771     -0.000000
  H      -2.164728     -0.648851     -0.000000
  H       0.012250     -1.908373      0.000000
  H       2.165874     -0.600976     -0.000000
9
Coordinates from ORCA-job irc_IRC_F E -267.111690586958
  O      -1.255338      1.157150     -0.000000
  C      -1.212783     -0.092827     -0.000000
  C       0.010026     -0.825055      0.000000
  C       1.186079     -0.120666      0.000000
  O       1.224926      1.190003      0.000000
  H       0.231742      1.471624     -0.000000
  H      -2.164919     -0.650607     -0.000000
  H       0.012315     -1.907935      0.000000
  H       2.165323     -0.601482      0.000000
