9
Coordinates from ORCA-job t_optts E -267.319353348300
  O          -1.16431289338493      1.17590807908417      0.00315214303237
  C          -1.17364448370093     -0.10001419617960      0.00082614103157
  C           0.00474123624201     -0.84983429781507     -0.00168053716684
  C           1.18068084906478     -0.09646477217152     -0.00047361451080
  O           1.16687598424347      1.17961227015439      0.00201465816684
  H           0.00132440674983      1.42267037027530     -0.00115562400740
  H          -2.14472606651243     -0.59579741724225      0.00117618058885
  H           0.00532921116440     -1.92780509749269     -0.00239389293020
  H           2.15373175613379     -0.58827493861272     -0.00146545420439
