9
Coordinates from ORCA-job t_opt E -267.308752265500
  O      -1.240000      1.170000      0.000000
  C      -1.220000     -0.070000      0.000000
  C       0.010000     -0.800000      0.000000
  C       1.230000     -0.070000      0.000000
  O       1.240000      1.170000      0.000000
  H       0.000000      1.420000      0.000000
  H      -2.150000     -0.660000      0.000000
  H       0.010000     -1.880000      0.000000
  H       2.150000     -0.660000      0.000000
9
Coordinates from ORCA-job t_opt E -267.318058041900
  O      -1.167105      1.177323      0.000000
  C      -1.178643     -0.081302     -0.000000
  C       0.006541     -0.836145     -0.000000
  C       1.186407     -0.078547     -0.000000
  O       1.168093      1.180919      0.000000
  H       0.001959      1.428836     -0.000000
  H      -2.128742     -0.628196      0.000000
  H       0.006470     -1.915780     -0.000000
  H       2.135021     -0.627109      0.000000
9
Coordinates from ORCA-job t_opt E -267.319001212000
  O      -1.161611      1.178017      0.000000
  C      -1.172649     -0.090989      0.000000
  C       0.004844     -0.845864      0.000000
  C       1.178733     -0.087058      0.000000
  O       1.162916      1.183141      0.000000
  H       0.005668      1.431077     -0.000000
  H      -2.130521     -0.614327      0.000000
  H       0.005319     -1.923569     -0.000000
  H       2.137302     -0.610429      0.000000
9
Coordinates from ORCA-job t_opt E -267.319521971000
  O      -1.167440      1.176084     -0.000000
  C      -1.173883     -0.100282     -0.000000
  C       0.003670     -0.850978      0.000000
  C       1.176651     -0.095700      0.000000
  O       1.165612      1.183312     -0.000000
  H       0.015255      1.429886      0.000000
  H      -2.141691     -0.601105     -0.000000
  H       0.005661     -1.928191      0.000000
  H       2.146164     -0.593027     -0.000000
9
Coordinates from ORCA-job t_opt E -267.321052196600
  O      -1.179517      1.168604     -0.000000
  C      -1.179649     -0.116441     -0.000000
  C       0.001467     -0.859101      0.000000
  C       1.170223     -0.109285      0.000000
  O       1.161573      1.184956     -0.000000
  H       0.053271      1.422450      0.000000
  H      -2.164819     -0.577609     -0.000000
  H       0.008529     -1.936017      0.000000
  H       2.158924     -0.557558     -0.000000
9
Coordinates from ORCA-job t_opt E -267.324146806700
  O      -1.206879      1.160433     -0.000000
  C      -1.190471     -0.126800     -0.000000
  C       0.000155     -0.860507      0.000000
  C       1.166099     -0.117463      0.000000
  O       1.167583      1.188893     -0.000000
  H       0.099368      1.427294      0.000000
  H      -2.180988     -0.573461     -0.000000
  H       0.012819     -1.936842      0.000000
  H       2.162314     -0.541546     -0.000000
9
Coordinates from ORCA-job t_opt E -267.330001033200
  O      -1.268135      1.144239     -0.000000
  C      -1.217562     -0.124105     -0.000000
  C       0.001907     -0.845772      0.000000
  C       1.165958     -0.116666      0.000000
  O       1.188234      1.197174     -0.000000
  H       0.177541      1.448411      0.000000
  H      -2.195785     -0.603393     -0.000000
  H       0.023593     -1.921907      0.000000
  H       2.154248     -0.557980     -0.000000
9
Coordinates from ORCA-job t_opt E -267.332955728400
  O      -1.298758      1.133239     -0.000000
  C      -1.235048     -0.100754     -0.000000
  C       0.005244     -0.823121      0.000000
  C       1.167667     -0.104035      0.000000
  O       1.198938      1.201217     -0.000000
  H       0.212188      1.470330      0.000000
  H      -2.181437     -0.653147     -0.000000
  H       0.028392     -1.900466      0.000000
  H       2.132814     -0.603263     -0.000000
9
Coordinates from ORCA-job t_opt E -267.333574375300
  O      -1.327851      1.120325     -0.000000
  C      -1.251402     -0.102552     -0.000000
  C       0.001818     -0.817633      0.000000
  C       1.154164     -0.111283     -0.000000
  O       1.206318      1.207159     -0.000000
  H       0.282394      1.496081      0.000000
  H      -2.187220     -0.679700     -0.000000
  H       0.029731     -1.894516      0.000000
  H       2.122049     -0.597880     -0.000000
9
Coordinates from ORCA-job t_opt E -267.334417610300
  O      -1.336592      1.123272     -0.000000
  C      -1.254262     -0.101593      0.000000
  C       0.000026     -0.816477     -0.000000
  C       1.157097     -0.112486     -0.000000
  O       1.220831      1.205574      0.000000
  H       0.277911      1.515435      0.000000
  H      -2.181343     -0.693399     -0.000000
  H       0.024573     -1.893664      0.000000
  H       2.121759     -0.606664     -0.000000
9
Coordinates from ORCA-job t_opt E -267.334664078400
  O      -1.351591      1.120432     -0.000000
  C      -1.261634     -0.104340     -0.000000
  C      -0.004066     -0.815460     -0.000000
  C       1.155014     -0.115314     -0.000000
  O       1.233661      1.205514      0.000000
  H       0.298539      1.537816      0.000000
  H      -2.179792     -0.709240      0.000000
  H       0.018749     -1.892674      0.000000
  H       2.121120     -0.606734      0.000000
9
Coordinates from ORCA-job t_opt E -267.334736786900
  O      -1.361599      1.116782     -0.000000
  C      -1.266368     -0.107611     -0.000000
  C      -0.007055     -0.814582     -0.000000
  C       1.153194     -0.116350      0.000000
  O       1.241357      1.204623      0.000000
  H       0.315134      1.552252      0.000000
  H      -2.180114     -0.718318      0.000000
  H       0.014893     -1.891816     -0.000000
  H       2.120557     -0.604980      0.000000
9
Coordinates from ORCA-job t_opt E -267.334751673300
  O      -1.364621      1.115013     -0.000000
  C      -1.267405     -0.109205     -0.000000
  C      -0.007679     -0.814061     -0.000000
  C       1.152745     -0.115868      0.000000
  O       1.243222      1.203706      0.000000
  H       0.320308      1.556566      0.000000
  H      -2.181048     -0.720040      0.000000
  H       0.014454     -1.891336     -0.000000
  H       2.120024     -0.604774      0.000000
9
Coordinates from ORCA-job t_opt E -267.334757672900
  O      -1.365655      1.113965     -0.000000
  C      -1.267381     -0.110280     -0.000000
  C      -0.007533     -0.813790     -0.000000
  C       1.152705     -0.114994      0.000000
  O       1.243470      1.202974      0.000000
  H       0.321895      1.558188      0.000000
  H      -2.182142     -0.719580      0.000000
  H       0.015318     -1.891083     -0.000000
  H       2.119322     -0.605401      0.000000
9
Coordinates from ORCA-job t_opt E -267.334758472400
  O      -1.365456      1.113844     -0.000000
  C      -1.267140     -0.110465     -0.000000
  C      -0.007260     -0.813833     -0.000000
  C       1.152761     -0.114613      0.000000
  O       1.243152      1.202970      0.000000
  H       0.321444      1.558070      0.000000
  H      -2.182556     -0.718838     -0.000000
  H       0.016155     -1.891109     -0.000000
  H       2.118898     -0.606026      0.000000
