9
Coordinates from ORCA-job t_opt E -267.334758472400
  O          -1.36545577253770      1.11384428905584     -0.00000000000083
  C          -1.26713988692162     -0.11046510621344     -0.00000000000047
  C          -0.00725957605887     -0.81383271918271     -0.00000000000019
  C           1.15276121160149     -0.11461306682988      0.00000000000023
  O           1.24315230674073      1.20296963953743      0.00000000000065
  H           0.32144394647217      1.55806990491015      0.00000000000083
  H          -2.18255588045928     -0.71883800465604     -0.00000000000019
  H           0.01615518884319     -1.89110865811167     -0.00000000000033
  H           2.11889846231989     -0.60602627850968      0.00000000000029
