9
Coordinates from ORCA-job t_optts E -267.308752265500
  O      -1.240000      1.170000      0.000000
  C      -1.220000     -0.070000      0.000000
  C       0.010000     -0.800000      0.000000
  C       1.230000     -0.070000      0.000000
  O       1.240000      1.170000      0.000000
  H       0.000000      1.420000      0.000000
  H      -2.150000     -0.660000      0.000000
  H       0.010000     -1.880000      0.000000
  H       2.150000     -0.660000      0.000000
9
Coordinates from ORCA-job t_optts E -267.301225514700
  O      -1.256952      1.134892     -0.027588
  C      -1.241462     -0.083157      0.005884
  C       0.032511     -0.797986      0.001217
  C       1.229265     -0.084966      0.019164
  O       1.252915      1.176433      0.020160
  H      -0.005548      1.454953     -0.022336
  H      -2.170998     -0.621258      0.037871
  H       0.097860     -1.848418     -0.037249
  H       2.092408     -0.710493      0.002876
9
Coordinates from ORCA-job t_optts E -267.299964293200
  O      -1.248816      1.111737     -0.041337
  C      -1.255557     -0.096266      0.002320
  C       0.042639     -0.802951     -0.047629
  C       1.211583     -0.086894      0.016845
  O       1.236635      1.190892      0.050490
  H       0.022723      1.493283     -0.035464
  H      -2.212378     -0.594979      0.074835
  H       0.167645     -1.854968     -0.031794
  H       2.065525     -0.739854      0.011734
9
Coordinates from ORCA-job t_optts E -267.309819490400
  O      -1.219218      1.139216     -0.029069
  C      -1.225067     -0.089327      0.002595
  C       0.029428     -0.815311     -0.031552
  C       1.203329     -0.083899      0.012371
  O       1.213262      1.186626      0.033267
  H       0.006375      1.470923     -0.024916
  H      -2.179444     -0.608029      0.053588
  H       0.106557     -1.880135     -0.026600
  H       2.094779     -0.700065      0.010315
9
Coordinates from ORCA-job t_optts E -267.315447651300
  O      -1.190260      1.152975     -0.019909
  C      -1.200847     -0.089322      0.000752
  C       0.019924     -0.828141     -0.028626
  C       1.191050     -0.084174      0.007184
  O       1.187609      1.185014      0.025605
  H       0.001693      1.455631     -0.018395
  H      -2.157697     -0.607464      0.041970
  H       0.069014     -1.898871     -0.018457
  H       2.109514     -0.665648      0.009876
9
Coordinates from ORCA-job t_optts E -267.318787429600
  O      -1.155785      1.170033     -0.003471
  C      -1.173948     -0.095721     -0.004433
  C       0.004914     -0.847926     -0.041823
  C       1.174391     -0.087084     -0.002712
  O       1.154885      1.184825      0.019165
  H       0.012388      1.430778     -0.010392
  H      -2.139773     -0.602958      0.029221
  H       0.019684     -1.924705      0.002397
  H       2.133243     -0.607242      0.012048
9
Coordinates from ORCA-job t_optts E -267.319205828300
  O      -1.171742      1.175411      0.010230
  C      -1.174218     -0.097059     -0.006469
  C       0.002910     -0.847831     -0.034332
  C       1.180156     -0.092398     -0.007780
  O       1.168397      1.181434      0.012451
  H       0.012020      1.425943     -0.004583
  H      -2.138229     -0.606733      0.009209
  H       0.002768     -1.924424      0.016486
  H       2.147937     -0.594343      0.004788
9
Coordinates from ORCA-job t_optts E -267.319348929500
  O      -1.167248      1.175589      0.012134
  C      -1.171381     -0.097663     -0.001371
  C       0.004918     -0.849445     -0.011434
  C       1.178625     -0.095700     -0.003719
  O       1.163060      1.180206      0.007136
  H       0.008206      1.422996     -0.005510
  H      -2.139837     -0.599742     -0.003455
  H       0.002657     -1.926972      0.009606
  H       2.151001     -0.589269     -0.003386
9
Coordinates from ORCA-job t_optts E -267.319375089200
  O      -1.163331      1.177141     -0.002734
  C      -1.169315     -0.095862      0.005789
  C       0.006626     -0.848787      0.009769
  C       1.182612     -0.096294      0.004961
  O       1.167833      1.179191     -0.001761
  H      -0.010972      1.423738     -0.003992
  H      -2.137090     -0.598649      0.004943
  H       0.000599     -1.926633     -0.017861
  H       2.153038     -0.593844      0.000886
9
Coordinates from ORCA-job t_optts E -267.319339619600
  O      -1.165747      1.176137      0.005392
  C      -1.172723     -0.098528      0.001331
  C       0.005308     -0.849527     -0.000033
  C       1.181146     -0.096284     -0.000209
  O       1.167146      1.179697      0.002379
  H       0.000710      1.423286     -0.003504
  H      -2.142275     -0.597998     -0.000674
  H       0.002778     -1.927402     -0.002518
  H       2.153657     -0.589381     -0.002164
9
Coordinates from ORCA-job t_optts E -267.319347314100
  O      -1.164494      1.176182      0.004432
  C      -1.172906     -0.099182      0.001192
  C       0.004979     -0.849812     -0.000910
  C       1.180875     -0.096333     -0.000255
  O       1.166725      1.179611      0.002190
  H       0.000727      1.422678     -0.002618
  H      -2.143059     -0.597040      0.000265
  H       0.003336     -1.927707     -0.002603
  H       2.153816     -0.588396     -0.001693
9
Coordinates from ORCA-job t_optts E -267.319350492800
  O      -1.164422      1.176001      0.004006
  C      -1.173409     -0.099634      0.000969
  C       0.004860     -0.849813     -0.001572
  C       1.180770     -0.096353     -0.000430
  O       1.166809      1.179647      0.002274
  H       0.001263      1.422720     -0.002068
  H      -2.144025     -0.596473      0.000665
  H       0.004401     -1.927756     -0.002246
  H       2.153754     -0.588338     -0.001598
9
Coordinates from ORCA-job t_optts E -267.319352270400
  O      -1.164358      1.175940      0.003544
  C      -1.173565     -0.099873      0.000882
  C       0.004789     -0.849822     -0.001670
  C       1.180714     -0.096419     -0.000457
  O       1.166856      1.179627      0.002144
  H       0.001327      1.422692     -0.001572
  H      -2.144458     -0.596076      0.000957
  H       0.004951     -1.927781     -0.002307
  H       2.153743     -0.588288     -0.001520
9
Coordinates from ORCA-job t_optts E -267.319353348300
  O      -1.164313      1.175908      0.003152
  C      -1.173644     -0.100014      0.000826
  C       0.004741     -0.849834     -0.001681
  C       1.180681     -0.096465     -0.000474
  O       1.166876      1.179612      0.002015
  H       0.001324      1.422670     -0.001156
  H      -2.144726     -0.595797      0.001176
  H       0.005329     -1.927805     -0.002394
  H       2.153732     -0.588275     -0.001465
