
                                 *****************
                                 * O   R   C   A *
                                 *****************

                                            #,                                       
                                            ###                                      
                                            ####                                     
                                            #####                                    
                                            ######                                   
                                           ########,                                 
                                     ,,################,,,,,                         
                               ,,#################################,,                 
                          ,,##########################################,,             
                       ,#########################################, ''#####,          
                    ,#############################################,,   '####,        
                  ,##################################################,,,,####,       
                ,###########''''           ''''###############################       
              ,#####''   ,,,,##########,,,,          '''####'''          '####       
            ,##' ,,,,###########################,,,                        '##       
           ' ,,###''''                  '''############,,,                           
         ,,##''                                '''############,,,,        ,,,,,,###''
      ,#''                                            '''#######################'''  
     '                                                          ''''####''''         
             ,#######,   #######,   ,#######,      ##                                
            ,#'     '#,  ##    ##  ,#'     '#,    #''#        ,####,    ,#,          
            ##       ##  ##   ,#'  ##            #'  '#       #'       ,# #          
            ##       ##  #######   ##           ,######,      #####,      #          
            '#,     ,#'  ##    ##  '#,     ,#' ,#      #,     #,   #      #          
             '#######'   ##     ##  '#######'  #'      '#     '####' #    #          



                #########################################################
                #                        -***-                          #
                #          Department of theory and spectroscopy        #
                #                                                       #
                #                      Frank Neese                      #
                #                                                       #
                #     Directorship, Architecture, Infrastructure        #
                #                    SHARK, DRIVERS                     #
                #        Core code/Algorithms in most modules           #
                #                                                       #
                #        Max Planck Institute fuer Kohlenforschung      #
                #                Kaiser Wilhelm Platz 1                 #
                #                 D-45470 Muelheim/Ruhr                 #
                #                      Germany                          #
                #                                                       #
                #                  All rights reserved                  #
                #                        -***-                          #
                #########################################################


                         Program Version 6.1.1  -  RELEASE   -
                                (GIT: $487d211c$)
                          ($2025-11-21 10:33:24 +0100$)


 With contributions from (in alphabetic order):
[Max-Planck-Institut fuer Kohlenforschung]                               
  Daniel Aravena         : Magnetic Suceptibility                        
  Michael Atanasov       : Ab Initio Ligand Field Theory (pilot matlab implementation)
  Alexander A. Auer      : GIAO ZORA, VPT2 properties, NMR spectrum      
  Ute Becker             : All parallelization in ORCA, NUMFREQ, NUMCALC 
  Giovanni Bistoni       : ED, misc. LED, open-shell LED, HFLD           
  Dmytro Bykov           : pre 5.0 version of the SCF Hessian            
  Marcos Casanova-Páez   : Triplet and SCS-CIS(D). UHF-(DLPNO)-IP/EA/STEOM-CCSD. UHF-CVS-IP/STEOM-CCSD   
  Vijay G. Chilkuri      : MRCI spin determinant printing, contributions to CSF-ICE 
  Pauline Colinet        : FMM embedding                                 
  Dipayan Datta          : RHF DLPNO-CCSD density                        
  Achintya Kumar Dutta   : EOM-CC, STEOM-CC                              
  Nicolas Foglia         : Exact transition moments, OPA infrastructure, MCD improvements    
  Dmitry Ganyushin       : Spin-Orbit,Spin-Spin,Magnetic field MRCI      
  Miquel Garcia-Rates    : C-PCM and meta-GGA Hessian, CCSD/C-PCM, Gaussian charge scheme 
  Tiago L. C. Gouveia    : GS-ROHF, GS-ROCIS                             
  Yang Guo               : DLPNO-NEVPT2, F12-NEVPT2, CIM, IAO-localization        
  Andreas Hansen         : Spin unrestricted coupled pair/coupled cluster methods 
  Ingolf Harden          : AUTO-CI MPn and infrastructure                
  Benjamin Helmich-Paris : MC-RPA, TRAH-(SCF,CASSCF), AVAS, COSX integrals, SCF dyn. polar., MC-PDFT, srDFT 
  Lee Huntington         : MR-EOM, pCC                                   
  Robert Izsak           : Overlap fitted RIJCOSX, COSX-SCS-MP3, EOM     
  Riya Kayal             : Wick's Theorem for AUTO-CI, AUTO-CI UHF-CCSDT 
  Emily Kempfer          : AUTO-CI RHF CISDT and CCSDT, approximate NEVPT4
  Christian Kollmar      : KDIIS, OOCD, Brueckner-CCSD(T), CCSD density, CASPT2, CASPT2-K, improved NEVPT2 
  Axel Koslowski         : Symmetry handling                             
  Simone Kossmann        : meta-GGA functionals, TD-DFT gradient, OOMP2, (MP2 Hessian; deprecated post 5.0) 
  Lucas Lang             : DCDCAS, Hyperfine gauge corrections, ICE-SOC+SSC
  Marvin Lechner         : AUTO-CI (C++ implementation), FIC-MRCC        
  Spencer Leger          : CASSCF response                               
  Dagmar Lenk            : GEPOL surface, SMD, ORCA-2-JSON               
  Dimitrios Liakos       : Extrapolation schemes; Compound Job, Property file
  Dimitrios Manganas     : Further ROCIS development; embedding schemes. LFT, Crystal Embedding 
  Dimitrios Pantazis     : SARC Basis sets                               
  Anastasios Papadopoulos: AUTO-CI, single reference methods and gradients 
  Taras Petrenko         : pre 6.0 DFT Hessian and TD-DFT gradient,  ECA, NRVS 
  Petra Pikulova         : Analytic Raman intensities                    
  Peter Pinski           : DLPNO-MP2, DLPNO-MP2 Gradient                 
  Shashank Vittal Rao    : ES-AILFT, MagRelax                            
  Christoph Reimann      : Effective Core Potentials                     
  Marius Retegan         : Local ZFS, SOC                                
  Christoph Riplinger    : Optimizer, TS searches, QM/MM, DLPNO-CCSD(T), (RO)-DLPNO pert. Triples 
  Michael Roemelt        : Original ROCIS implementation, recursive CI coupling coefficients
  Masaaki Saitow         : Open-shell DLPNO-CCSD energy and density      
  Barbara Sandhoefer     : DKH picture change effects                    
  Yorick L. A. Schmerwitz: GMF and freeze-and-release deltaSCF, NEB S-IDPP initial path                    
  Kantharuban Sivalingam : CASSCF convergence/infrastructure, NEVPT2, NEVPT3, NEVPT4(SD), FIC-MRCI and CEPA variants
  Bernardo de Souza      : ESD, SOC TD-DFT                               
  Georgi L. Stoychev     : AutoAux, RI-MP2 NMR, DLPNO-MP2 response, X2C  
  Van Anh Tran           : RI-MP2 g-tensors                              
  Willem Van den Heuvel  : Paramagnetic NMR                              
  Zikuan Wang            : NOTCH, Electric field optimization            
  Frank Wennmohs         : Technical directorship and infrastructure     
  Hang Xu                : AUTO-CI-Response properties                   
                                                                         
[FACCTs GmbH]                                                            
  Markus Bursch, Nicolas Foglia, Miquel Garcia-Rates, Ingolf Harden, Hagen Neugebauer, Anastasios Papadopoulos, 
  Christoph Riplinger, Bernardo de Souza, Georgi L. Stoychev                                                    
                                                                 
  APM, various basis sets, CI-OPT, improved COSX, DLPNO-Multilevel,           
  DOCKER, DRACO, updates on ESD, Fragmentator, GOAT, IRC, LR-CPCM, L-BFGS, MBIS, meta-GGA TD-DFT gradient, ML-optimized integration grids, 
  MM, NACMEs, nearIR, NEB, NEB-TS, NL-DFT gradient (VV10), 2- and 3-layer-ONIOM, interface openCOSMO-RS, QMMM,   
  Crystal-QMMM, RESP, rigid body optimization, SF, symmetry and pop. for TD-DFT, various functionals, SOLVATOR                                   
                                                                         
[Other institutions]                                                     
  V. Asgeirsson          : NEB                                           
  Christoph Bannwarth    : sTDA-DFT, sTD-DFT, PBEh-3c, B97-3c, D3        
  Giovanni Bistoni       : ETS/NOCV, ADLD/ADEX, COVALED                  
  Martin Brehm           : Molecular dynamics                            
  Ronald Cardenas        : ETS/NOCV                                      
  Martina Colucci        : COVALED                                       
  Sebastian Ehlert       : rSCAN, r2SCAN, r2SCAN-3c, D4, dhf basis sets  
  Marvin Friede          : D4 for Fr, Ra, Ac-Lr                          
  Lars Goerigk           : TD-DFT with DH, B97 family of functionals     
  Stefan Grimme          : VdW corrections, initial TS optimization, DFT functionals, gCP, sTDA/sTD-DF 
  Waldemar Hujo          : DFT-NL                                        
  H. Jonsson             : NEB                                           
  Holger Kruse           : gCP                                           
  Marcel Mueller         : wB97X-3c, vDZP basis set                      
  Hagen Neugebauer       : wr2SCAN, Native XTB                           
  Gianluca Regni         : ADLD/ADEX                                     
  Tobias Risthaus        : pre 6.0 range-separated hybrid DFT and stability analysis
  Lukas Wittmann         : regularized MP2, r2SCAN double-hybrids, wr2SCAN        
                                                                         
We gratefully acknowledge several colleagues who have allowed us to      
interface, adapt or use parts of their codes:                            
  Ed Valeev, F. Pavosevic, A. Kumar             : LibInt (2-el integral package), F12 methods 
  Garnet Chan, S. Sharma, J. Yang, R. Olivares  : DMRG                   
  Ulf Ekstrom                                   : XCFun DFT Library      
  Mihaly Kallay                                 : mrcc  (arbitrary order and MRCC methods)
  Frank Weinhold                                : gennbo (NPA and NBO analysis)           
  Simon Mueller                                 : openCOSMO-RS                            
  Christopher J. Cramer and Donald G. Truhlar   : smd solvation model                     
  S Lehtola, MJT Oliveira, MAL Marques          : LibXC Library                           
  Liviu Ungur et al                             : ANISO software                          


 Your calculation uses the libint2 library for the computation of 2-el integrals
 For citations please refer to: http://libint.valeyev.net

 Your ORCA version has been built with support for libXC version: 7.0.0
 For citations please refer to: https://libxc.gitlab.io

 This ORCA versions uses:
   CBLAS   interface :  Fast vector & matrix operations
   LAPACKE interface :  Fast linear algebra routines
   SCALAPACK package :  Parallel linear algebra routines
   Shared memory     :  Shared parallel matrices
   BLAS/LAPACK       :  OpenBLAS 0.3.29  USE64BITINT DYNAMIC_ARCH NO_AFFINITY SkylakeX SINGLE_THREADED
        Core in use  :  SkylakeX
   Copyright (c) 2011-2014, The OpenBLAS Project


  ***********************************
  * Starting time: Fri Sep  4 20:33:58 2026
  * Host name:     kasuga02
  * Process ID:    74955
  * Working dir.:  /tmp/p1_T_Em
  ***********************************



***************************************
The coordinates will be read from file: g.xyz
***************************************


================================================================================

================================================================================
                                        WARNINGS
                       Please study these warnings very carefully!
================================================================================


WARNING: Geometry Optimization
  ===> : Switching off AutoStart
         For restart on a previous wavefunction, please use MOREAD

Using external energy/gradient program given in input:
  "/home/ruigengji/MLPATH/scripts/mace_engrad.sh"


WARNING: four-center integrals in TRAH must be done with SHARK!
  ===> : Turning Shark on


================================================================================
                                       INPUT FILE
================================================================================
NAME = ts.inp
|  1> ! ExtOpt OptTS NumFreq
|  2> %method ProgExt "/home/ruigengji/MLPATH/scripts/mace_engrad.sh" end
|  3> %geom Calc_Hess true end
|  4> * xyzfile 0 1 g.xyz
|  5> 
|  6>                          ****END OF INPUT****
================================================================================

                       *****************************
                       * Geometry Optimization Run *
                       *****************************

Geometry optimization settings:
Update method            Update   .... Bofill
Choice of coordinates    CoordSys .... (2022) Redundant Internals
Initial Hessian          InHess   .... Almloef's Model
Max. no of cycles        MaxIter  .... 50

Convergence Tolerances:
Energy Change            TolE     ....  5.0000e-06 Eh
Max. Gradient            TolMAXG  ....  3.0000e-04 Eh/bohr
RMS Gradient             TolRMSG  ....  1.0000e-04 Eh/bohr
Max. Displacement        TolMAXD  ....  4.0000e-03 bohr
RMS Displacement         TolRMSD  ....  2.0000e-03 bohr
Strict Convergence                .... False

------------------------------------------------------------------------------
                        ORCA OPTIMIZATION COORDINATE SETUP
------------------------------------------------------------------------------

The optimization will be done in redundant internal coordinates (2022)
Making redundant internal coordinates   ...  (2022 redundants) done
Following TS mode number                ...     0
Evaluating the initial hessian          ...  (Is done on the fly) done
Evaluating the coordinates              ...  done
Calculating the B-matrix                .... done
Calculating the G-matrix                .... done
The number of degrees of freedom        ....   35

    -----------------------------------------------------------------
                    Redundant Internal Coordinates


    -----------------------------------------------------------------
         Definition                    Initial Value    d2E/dq (diagonal element)
    -----------------------------------------------------------------
      1. B(C   1,O   0)                  1.2402         0.000000   
      2. B(C   2,C   1)                  1.4303         0.000000   
      3. B(C   3,C   2)                  1.4217         0.000000   
      4. B(O   4,C   3)                  1.2400         0.000000   
      5. B(H   5,O   4)                  1.2650         0.000000   
      6. B(H   5,O   0)                  1.2650         0.000000   
      7. B(H   6,C   1)                  1.1014         0.000000   
      8. B(H   7,C   2)                  1.0800         0.000000   
      9. B(H   8,C   3)                  1.0929         0.000000   
     10. A(C   1,O   0,H   5)          100.4747         0.000000   
     11. A(O   0,C   1,C   2)          121.6130         0.000000   
     12. A(C   2,C   1,H   6)          116.9196         0.000000   
     13. A(O   0,C   1,H   6)          121.4673         0.000000   
     14. A(C   3,C   2,H   7)          120.8946         0.000000   
     15. A(C   1,C   2,H   7)          120.6890         0.000000   
     16. A(C   1,C   2,C   3)          118.4164         0.000000   
     17. A(O   4,C   3,H   8)          122.2102         0.000000   
     18. A(C   2,C   3,O   4)          121.3567         0.000000   
     19. A(C   2,C   3,H   8)          116.4331         0.000000   
     20. A(C   3,O   4,H   5)          100.9367         0.000000   
     21. A(O   0,H   5,O   4)          157.2025         0.000000   
     22. D(H   6,C   1,O   0,H   5)    180.0000         0.000000   
     23. D(C   2,C   1,O   0,H   5)      0.0000         0.000000   
     24. D(C   3,C   2,C   1,H   6)    180.0000         0.000000   
     25. D(H   7,C   2,C   1,O   0)    180.0000         0.000000   
     26. D(C   3,C   2,C   1,O   0)      0.0000         0.000000   
     27. D(H   7,C   2,C   1,H   6)      0.0000         0.000000   
     28. D(O   4,C   3,C   2,C   1)      0.0000         0.000000   
     29. D(H   8,C   3,C   2,H   7)      0.0000         0.000000   
     30. D(H   8,C   3,C   2,C   1)    180.0000         0.000000   
     31. D(O   4,C   3,C   2,H   7)    180.0000         0.000000   
     32. D(H   5,O   4,C   3,H   8)    180.0000         0.000000   
     33. D(H   5,O   4,C   3,C   2)      0.0000         0.000000   
     34. D(O   0,H   5,O   4,C   3)      0.0000         0.000000   
     35. D(O   4,H   5,O   0,C   1)      0.0000         0.000000   
    -----------------------------------------------------------------

Number of atoms                         .... 9
Number of degrees of freedom            .... 35


         *************************************************************
         *                GEOMETRY OPTIMIZATION CYCLE   1            *
         *************************************************************
---------------------------------
CARTESIAN COORDINATES (ANGSTROEM)
---------------------------------
  O     -1.240000    1.170000    0.000000
  C     -1.220000   -0.070000    0.000000
  C      0.010000   -0.800000    0.000000
  C      1.230000   -0.070000    0.000000
  O      1.240000    1.170000    0.000000
  H      0.000000    1.420000    0.000000
  H     -2.150000   -0.660000    0.000000
  H      0.010000   -1.880000    0.000000
  H      2.150000   -0.660000    0.000000

----------------------------
CARTESIAN COORDINATES (A.U.)
----------------------------
  NO LB      ZA    FRAG     MASS         X           Y           Z
   0 O     8.0000    0    15.999   -2.343260    2.210980    0.000000
   1 C     6.0000    0    12.011   -2.305466   -0.132281    0.000000
   2 C     6.0000    0    12.011    0.018897   -1.511781    0.000000
   3 C     6.0000    0    12.011    2.324363   -0.132281    0.000000
   4 O     8.0000    0    15.999    2.343260    2.210980    0.000000
   5 H     1.0000    0     1.008    0.000000    2.683411    0.000000
   6 H     1.0000    0     1.008   -4.062911   -1.247219    0.000000
   7 H     1.0000    0     1.008    0.018897   -3.552685    0.000000
   8 H     1.0000    0     1.008    4.062911   -1.247219    0.000000

--------------------------------
INTERNAL COORDINATES (ANGSTROEM)
--------------------------------
 O      0   0   0     0.000000000000     0.00000000     0.00000000
 C      1   0   0     1.240161279834     0.00000000     0.00000000
 C      2   1   0     1.430314650698   121.61300409     0.00000000
 C      3   2   1     1.421724305201   118.41639903     0.00000000
 O      4   3   2     1.240040321925   121.35669496     0.00000000
 H      1   2   3     1.264950591920   100.47471772     0.00000000
 H      2   1   3     1.101362792181   121.46734785   180.00000085
 H      3   2   1     1.080000000000   120.68895874   180.00000085
 H      4   3   2     1.092931836850   116.43312848   180.00000000

---------------------------
INTERNAL COORDINATES (A.U.)
---------------------------
 O      0   0   0     0.000000000000     0.00000000     0.00000000
 C      1   0   0     2.343565180780     0.00000000     0.00000000
 C      2   1   0     2.702902975154   121.61300409     0.00000000
 C      3   2   1     2.686669574770   118.41639903     0.00000000
 O      4   3   2     2.343336603458   121.35669496     0.00000000
 H      1   2   3     2.390410191671   100.47471772     0.00000000
 H      2   1   3     2.081274051312   121.46734785   180.00000085
 H      3   2   1     2.040904224635   120.68895874   180.00000085
 H      4   3   2     2.065341854690   116.43312848   180.00000000

Calling /home/ruigengji/MLPATH/scripts/mace_engrad.sh ts_EXT.extinp.tmp   ... 


External program completed successfully in 211.889 sec

-------------------------------------------------   --------------------
FINAL SINGLE POINT ENERGY (From external program)      -267.308752265500
-------------------------------------------------   --------------------


------------------
CARTESIAN GRADIENT
------------------

   1   O   :   -0.026174509   -0.031473404   -0.000000000
   2   C   :   -0.028753899    0.042433451   -0.000000000
   3   C   :    0.004290633   -0.000130155   -0.000000000
   4   C   :    0.031959245    0.040027374   -0.000000000
   5   O   :    0.025242690   -0.034422598   -0.000000000
   6   H   :   -0.001094513   -0.005048349   -0.000000000
   7   H   :   -0.000089041   -0.006354032   -0.000000000
   8   H   :    0.000070482   -0.000268389   -0.000000000
   9   H   :   -0.005451088   -0.004763898   -0.000000000

Difference to translation invariance:
           :    0.0000000000    0.0000000000    0.0000000000

Difference to rotation invariance:
           :    0.0000000000    0.0000000000   -0.0000000000

Norm of the Cartesian gradient     ...    0.0942694822
RMS gradient                       ...    0.0181421703
MAX gradient                       ...    0.0424334513
ERROR (SHARK): Failed to read input file (ts.SHARKINP.tmp)

ORCA finished by error termination in PROPINT
Calling Command: /home/korakuen/orca_6_1_1_linux_x86-64_shared_openmpi418_avx2/orca_propint ts.propintinp.tmp ts 
[file orca_tools/qcmsg.cpp, line 394]: 
  .... aborting the run

[file orca_tools/qcmsg.cpp, line 394]: 
  .... aborting the run

