9
Coordinates from ORCA-job ts
  O          -1.24000000000000      1.17000000000000      0.00000000000000
  C          -1.22000000000000     -0.07000000000000      0.00000000000000
  C           0.01000000000000     -0.80000000000000      0.00000000000000
  C           1.23000000000000     -0.07000000000000      0.00000000000000
  O           1.24000000000000      1.17000000000000      0.00000000000000
  H           0.00000000000000      1.42000000000000      0.00000000000000
  H          -2.15000000000000     -0.66000000000000      0.00000000000000
  H           0.01000000000000     -1.88000000000000      0.00000000000000
  H           2.15000000000000     -0.66000000000000      0.00000000000000
