9
Coordinates from ORCA-job irc_IRC_B E -267.111689127734
  O          -1.22090544145808      1.18732440784745      0.00000000069985
  C          -1.17924929005488     -0.12325111227627      0.00000000040367
  C          -0.00165769956639     -0.82508605787038     -0.00000000039354
  C           1.21952870093992     -0.09016978282636     -0.00000000084272
  O           1.25931930410488      1.15991037324075     -0.00000000068738
  H          -0.22827875519024      1.47105050186349     -0.00000000015057
  H          -2.15745300887252     -0.60618457961438      0.00000000062432
  H          -0.00157500743662     -1.90796750115079     -0.00000000094119
  H           2.17289898057055     -0.64583025945150     -0.00000000031322
