9
Coordinates from ORCA-job irc_IRC_F E -267.111690586958
  O          -1.25533765718687      1.15714987803573     -0.00000000043906
  C          -1.21278256143016     -0.09282715568229     -0.00000000045749
  C           0.01002640443064     -0.82505546032557      0.00000000059832
  C           1.18607869612460     -0.12066622545625      0.00000000072366
  O           1.22492592652365      1.19000296303877      0.00000000079396
  H           0.23174224898066      1.47162423004614     -0.00000000007078
  H          -2.16491866371832     -0.65060698665671     -0.00000000041981
  H           0.01231491578600     -1.90793546002672      0.00000000075097
  H           2.16532290746631     -0.60148177279777      0.00000000012100
