5
Coordinates from ORCA-job ch3cl E -500.067682304251
  C       0.000000      0.000000      0.000000
  Cl      0.000000      0.000000      1.785000
  H       1.028000      0.000000     -0.373000
  H      -0.514000      0.890000     -0.373000
  H      -0.514000     -0.890000     -0.373000
5
Coordinates from ORCA-job ch3cl E -500.067879657622
  C       0.000027     -0.000000     -0.007403
  Cl      0.000021      0.000000      1.786416
  H       1.029418      0.000000     -0.370968
  H      -0.514733      0.891452     -0.371023
  H      -0.514733     -0.891452     -0.371023
5
Coordinates from ORCA-job ch3cl E -500.068032384395
  C       0.000016      0.000000     -0.021914
  Cl     -0.000002     -0.000000      1.786851
  H       1.034348     -0.000000     -0.366310
  H      -0.517181      0.895824     -0.366313
  H      -0.517181     -0.895824     -0.366313
5
Coordinates from ORCA-job ch3cl E -500.068032589439
  C       0.000010      0.000000     -0.022346
  Cl     -0.000005     -0.000000      1.786744
  H       1.034705     -0.000000     -0.366137
  H      -0.517355      0.896104     -0.366131
  H      -0.517355     -0.896104     -0.366131
