6
Coordinates from ORCA-job complex E -960.328473854716
  C          -0.00022596524310      0.00000000045026     -0.06774335156050
  Cl          0.00066029808259     -0.00000000158174      1.81954875625626
  H           1.03432266519449      0.00000000093820     -0.39466792000513
  H          -0.51777992997659      0.89612328626580     -0.39385576987033
  H          -0.51777993032344     -0.89612328498647     -0.39385577040979
  Cl          0.00080286226604     -0.00000000108605     -3.10342594441051
