6
Coordinates from ORCA-job complex E -960.326216802273
  C       0.000000      0.000000      0.000000
  Cl      0.000000      0.000000      1.785000
  H       1.028000      0.000000     -0.373000
  H      -0.514000      0.890000     -0.373000
  H      -0.514000     -0.890000     -0.373000
  Cl      0.000000      0.000000     -3.200000
6
Coordinates from ORCA-job complex E -960.327448666239
  C       0.000027      0.000000     -0.010030
  Cl      0.000051     -0.000000      1.810120
  H       1.023032      0.000000     -0.379363
  H      -0.511574      0.885930     -0.379371
  H      -0.511574     -0.885930     -0.379371
  Cl      0.000040     -0.000000     -3.195986
6
Coordinates from ORCA-job complex E -960.328105230936
  C       0.000001      0.000000     -0.028926
  Cl      0.000119     -0.000000      1.827824
  H       1.025319      0.000000     -0.387286
  H      -0.512781      0.888029     -0.387201
  H      -0.512781     -0.888029     -0.387201
  Cl      0.000123     -0.000000     -3.171210
6
Coordinates from ORCA-job complex E -960.328359577237
  C      -0.000052      0.000000     -0.047945
  Cl      0.000225     -0.000000      1.830682
  H       1.029443      0.000000     -0.392874
  H      -0.514930      0.891663     -0.392663
  H      -0.514930     -0.891663     -0.392663
  Cl      0.000244     -0.000000     -3.138538
6
Coordinates from ORCA-job complex E -960.328455414514
  C      -0.000118     -0.000000     -0.063278
  Cl      0.000376      0.000000      1.826207
  H       1.032913     -0.000000     -0.395920
  H      -0.516796      0.894738     -0.395533
  H      -0.516796     -0.894738     -0.395533
  Cl      0.000421      0.000000     -3.109944
6
Coordinates from ORCA-job complex E -960.328470850702
  C      -0.000163     -0.000000     -0.068165
  Cl      0.000491      0.000000      1.821856
  H       1.034151     -0.000000     -0.395974
  H      -0.517525      0.895871     -0.395423
  H      -0.517525     -0.895871     -0.395423
  Cl      0.000571      0.000000     -3.100872
6
Coordinates from ORCA-job complex E -960.328473436929
  C      -0.000196      0.000000     -0.068249
  Cl      0.000581     -0.000000      1.819942
  H       1.034347      0.000000     -0.395186
  H      -0.517712      0.896093     -0.394496
  H      -0.517712     -0.896093     -0.394496
  Cl      0.000693     -0.000000     -3.101515
6
Coordinates from ORCA-job complex E -960.328473854716
  C      -0.000226      0.000000     -0.067743
  Cl      0.000660     -0.000000      1.819549
  H       1.034323      0.000000     -0.394668
  H      -0.517780      0.896123     -0.393856
  H      -0.517780     -0.896123     -0.393856
  Cl      0.000803     -0.000000     -3.103426
