6
Coordinates from ORCA-job ts E -960.319457596295
  C          -0.00024263106625      0.00000000367126      0.00000000057806
  Cl         -0.00002327262051     -0.00000000670975      2.36451537488354
  Cl         -0.00002327132544     -0.00000000771238     -2.36451537123940
  H           1.07452598089506      0.00000000327518     -0.00000000330347
  H          -0.53761840320994      0.93079460618510      0.00000000080836
  H          -0.53761840267293     -0.93079459870940     -0.00000000172708
