6
Coordinates from ORCA-job ts E -960.319412286966
  C       0.000000      0.000000      0.000000
  Cl      0.000000      0.000000      2.350000
  Cl      0.000000      0.000000     -2.350000
  H       1.075000      0.000000      0.000000
  H      -0.538000      0.931000      0.000000
  H      -0.538000     -0.931000      0.000000
6
Coordinates from ORCA-job ts E -960.319457527410
  C      -0.000247     -0.000000     -0.000000
  Cl     -0.000014      0.000000      2.363971
  Cl     -0.000014      0.000000     -2.363971
  H       1.074517     -0.000000     -0.000000
  H      -0.537621      0.930789      0.000000
  H      -0.537621     -0.930789     -0.000000
6
Coordinates from ORCA-job ts E -960.319457596295
  C      -0.000243      0.000000      0.000000
  Cl     -0.000023     -0.000000      2.364515
  Cl     -0.000023     -0.000000     -2.364515
  H       1.074526      0.000000     -0.000000
  H      -0.537618      0.930795      0.000000
  H      -0.537618     -0.930795     -0.000000
