6
Coordinates from ORCA-job irc_IRC_B E -960.328355119116
  C          -0.00027735734247     -0.00009062565492     -1.02454270510001
  Cl          0.00112644495782      0.00048237163253      1.93895782553206
  H           1.03512477800271     -0.00003585509911     -0.70168364240375
  H          -0.51788904758495      0.89663565400239     -0.70189827468138
  H          -0.51790503245789     -0.89667978069496     -0.70155171705879
  Cl         -0.00028190577560     -0.00045725980917     -2.91998955158213
