6
Coordinates from ORCA-job irc_IRC_B E -960.321219608828
  C      -0.000116     -0.000047     -0.811302
  Cl      0.000593      0.000440      1.723913
  H       1.074679     -0.000030     -0.672964
  H      -0.537458      0.930778     -0.672784
  H      -0.537473     -0.930811     -0.672424
  Cl     -0.000328     -0.000476     -3.005147
6
Coordinates from ORCA-job irc_IRC_B E -960.323330003081
  C      -0.000002     -0.000057     -0.867404
  Cl      0.000618      0.000446      1.753483
  H       1.064265     -0.000030     -0.675130
  H      -0.532307      0.921764     -0.674934
  H      -0.532324     -0.921799     -0.674577
  Cl     -0.000352     -0.000469     -2.972146
6
Coordinates from ORCA-job irc_IRC_B E -960.325634420812
  C      -0.000963     -0.000087     -0.927861
  Cl      0.000638      0.000453      1.786186
  H       1.052177     -0.000030     -0.676735
  H      -0.525800      0.910579     -0.676718
  H      -0.525807     -0.910598     -0.676367
  Cl     -0.000348     -0.000462     -2.939212
6
Coordinates from ORCA-job irc_IRC_B E -960.327152224885
  C      -0.000798     -0.000086     -0.982343
  Cl      0.000685      0.000460      1.825760
  H       1.045235     -0.000031     -0.679705
  H      -0.522443      0.904859     -0.680041
  H      -0.522457     -0.904892     -0.679695
  Cl     -0.000325     -0.000456     -2.914685
6
Coordinates from ORCA-job irc_IRC_B E -960.327551432574
  C      -0.003319     -0.000105     -0.995181
  Cl      0.000767      0.000465      1.849163
  H       1.041527     -0.000031     -0.683534
  H      -0.519428      0.899734     -0.684462
  H      -0.519433     -0.899753     -0.684121
  Cl     -0.000217     -0.000455     -2.912575
6
Coordinates from ORCA-job irc_IRC_B E -960.327655138691
  C      -0.001468     -0.000093     -0.997551
  Cl      0.000781      0.000466      1.855076
  H       1.039525     -0.000032     -0.684972
  H      -0.519324      0.899391     -0.685473
  H      -0.519335     -0.899422     -0.685129
  Cl     -0.000281     -0.000456     -2.912660
6
Coordinates from ORCA-job irc_IRC_B E -960.327847792201
  C      -0.000042     -0.000083     -1.003835
  Cl      0.000832      0.000469      1.870430
  H       1.037094     -0.000033     -0.688064
  H      -0.518824      0.898377     -0.688231
  H      -0.518840     -0.898418     -0.687884
  Cl     -0.000321     -0.000456     -2.913124
6
Coordinates from ORCA-job irc_IRC_B E -960.328025142605
  C      -0.000760     -0.000097     -1.010659
  Cl      0.000898      0.000473      1.888119
  H       1.036913     -0.000033     -0.691201
  H      -0.518432      0.897721     -0.691491
  H      -0.518443     -0.897753     -0.691147
  Cl     -0.000278     -0.000456     -2.914329
6
Coordinates from ORCA-job irc_IRC_B E -960.328162173807
  C      -0.000118     -0.000084     -1.015051
  Cl      0.000968      0.000476      1.904927
  H       1.035558     -0.000035     -0.694828
  H      -0.518096      0.897039     -0.694961
  H      -0.518113     -0.897084     -0.694613
  Cl     -0.000300     -0.000457     -2.916182
6
Coordinates from ORCA-job irc_IRC_B E -960.328273265818
  C      -0.000221     -0.000089     -1.020678
  Cl      0.001048      0.000479      1.922326
  H       1.036028     -0.000035     -0.698120
  H      -0.518322      0.897405     -0.698276
  H      -0.518338     -0.897448     -0.697929
  Cl     -0.000297     -0.000457     -2.918032
6
Coordinates from ORCA-job irc_IRC_B E -960.328355119116
  C      -0.000277     -0.000091     -1.024543
  Cl      0.001126      0.000482      1.938958
  H       1.035125     -0.000036     -0.701684
  H      -0.517889      0.896636     -0.701898
  H      -0.517905     -0.896680     -0.701552
  Cl     -0.000282     -0.000457     -2.919990
