6
Coordinates from ORCA-job irc_IRC_F E -960.328354862846
  C          -0.00031071412653      0.00004735851530     -0.30675725604647
  Cl          0.00058396621091      0.00041518942782      1.58882967421864
  H           1.03524519880425     -0.00002582243740     -0.62994667744443
  H          -0.51784976224509      0.89659231026773     -0.62942058268416
  H          -0.51786523610965     -0.89662085797675     -0.62907356486935
  Cl          0.00011666766532     -0.00052668217304     -3.27014552674150
