6
Coordinates from ORCA-job irc_IRC_F E -960.321219607895
  C      -0.000066      0.000003     -0.519900
  Cl      0.000581      0.000432      1.673943
  H       1.074675     -0.000032     -0.658658
  H      -0.537460      0.930776     -0.658572
  H      -0.537477     -0.930813     -0.658212
  Cl     -0.000332     -0.000484     -3.055115
6
Coordinates from ORCA-job irc_IRC_F E -960.323330025358
  C       0.000069      0.000014     -0.463799
  Cl      0.000543      0.000425      1.640943
  H       1.064264     -0.000032     -0.656487
  H      -0.532310      0.921763     -0.656420
  H      -0.532326     -0.921799     -0.656063
  Cl     -0.000320     -0.000490     -3.084687
6
Coordinates from ORCA-job irc_IRC_F E -960.325634508161
  C      -0.000853      0.000031     -0.403341
  Cl      0.000534      0.000418      1.608008
  H       1.052167     -0.000031     -0.654876
  H      -0.525799      0.910572     -0.654634
  H      -0.525816     -0.910611     -0.654281
  Cl     -0.000313     -0.000497     -3.117390
6
Coordinates from ORCA-job irc_IRC_F E -960.327152548149
  C      -0.000687      0.000038     -0.348866
  Cl      0.000546      0.000413      1.583481
  H       1.045227     -0.000031     -0.651900
  H      -0.522435      0.904845     -0.651303
  H      -0.522451     -0.904880     -0.650953
  Cl     -0.000280     -0.000504     -3.156974
6
Coordinates from ORCA-job irc_IRC_F E -960.327551672985
  C      -0.003215      0.000046     -0.336018
  Cl      0.000654      0.000413      1.581368
  H       1.041516     -0.000030     -0.648067
  H      -0.519405      0.899699     -0.646873
  H      -0.519423     -0.899737     -0.646525
  Cl     -0.000207     -0.000509     -3.180399
6
Coordinates from ORCA-job irc_IRC_F E -960.327655096879
  C      -0.001351      0.000043     -0.333653
  Cl      0.000589      0.000413      1.581454
  H       1.039523     -0.000029     -0.646636
  H      -0.519314      0.899381     -0.645874
  H      -0.519331     -0.899415     -0.645525
  Cl     -0.000196     -0.000510     -3.186280
6
Coordinates from ORCA-job irc_IRC_F E -960.327847664885
  C       0.000084      0.000041     -0.327367
  Cl      0.000549      0.000413      1.581918
  H       1.037100     -0.000029     -0.643546
  H      -0.518823      0.898385     -0.643122
  H      -0.518838     -0.898416     -0.642773
  Cl     -0.000152     -0.000513     -3.201624
6
Coordinates from ORCA-job irc_IRC_F E -960.328025052517
  C      -0.000631      0.000045     -0.320555
  Cl      0.000593      0.000414      1.583125
  H       1.036909     -0.000028     -0.640406
  H      -0.518421      0.897715     -0.639856
  H      -0.518438     -0.897747     -0.639508
  Cl     -0.000092     -0.000517     -3.219315
6
Coordinates from ORCA-job irc_IRC_F E -960.328162151514
  C       0.000015      0.000043     -0.316145
  Cl      0.000572      0.000414      1.584977
  H       1.035569     -0.000027     -0.636781
  H      -0.518096      0.897055     -0.636392
  H      -0.518110     -0.897083     -0.636044
  Cl     -0.000030     -0.000520     -3.236129
6
Coordinates from ORCA-job irc_IRC_F E -960.328273343444
  C      -0.000105      0.000045     -0.310520
  Cl      0.000578      0.000415      1.586829
  H       1.036045     -0.000027     -0.633486
  H      -0.518313      0.897409     -0.633069
  H      -0.518328     -0.897437     -0.632721
  Cl      0.000043     -0.000523     -3.253546
6
Coordinates from ORCA-job irc_IRC_F E -960.328354862846
  C      -0.000311      0.000047     -0.306757
  Cl      0.000584      0.000415      1.588830
  H       1.035245     -0.000026     -0.629947
  H      -0.517850      0.896592     -0.629421
  H      -0.517865     -0.896621     -0.629074
  Cl      0.000117     -0.000527     -3.270146
