6
Coordinates from ORCA-job irc_IRC_Full E -960.328355119116
  C      -0.000277     -0.000091     -1.024543
  Cl      0.001126      0.000482      1.938958
  H       1.035125     -0.000036     -0.701684
  H      -0.517889      0.896636     -0.701898
  H      -0.517905     -0.896680     -0.701552
  Cl     -0.000282     -0.000457     -2.919990
6
Coordinates from ORCA-job irc_IRC_Full E -960.328273265818
  C      -0.000221     -0.000089     -1.020678
  Cl      0.001048      0.000479      1.922326
  H       1.036028     -0.000035     -0.698120
  H      -0.518322      0.897405     -0.698276
  H      -0.518338     -0.897448     -0.697929
  Cl     -0.000297     -0.000457     -2.918032
6
Coordinates from ORCA-job irc_IRC_Full E -960.328162173807
  C      -0.000118     -0.000084     -1.015051
  Cl      0.000968      0.000476      1.904927
  H       1.035558     -0.000035     -0.694828
  H      -0.518096      0.897039     -0.694961
  H      -0.518113     -0.897084     -0.694613
  Cl     -0.000300     -0.000457     -2.916182
6
Coordinates from ORCA-job irc_IRC_Full E -960.328025142605
  C      -0.000760     -0.000097     -1.010659
  Cl      0.000898      0.000473      1.888119
  H       1.036913     -0.000033     -0.691201
  H      -0.518432      0.897721     -0.691491
  H      -0.518443     -0.897753     -0.691147
  Cl     -0.000278     -0.000456     -2.914329
6
Coordinates from ORCA-job irc_IRC_Full E -960.327847792201
  C      -0.000042     -0.000083     -1.003835
  Cl      0.000832      0.000469      1.870430
  H       1.037094     -0.000033     -0.688064
  H      -0.518824      0.898377     -0.688231
  H      -0.518840     -0.898418     -0.687884
  Cl     -0.000321     -0.000456     -2.913124
6
Coordinates from ORCA-job irc_IRC_Full E -960.327655138691
  C      -0.001468     -0.000093     -0.997551
  Cl      0.000781      0.000466      1.855076
  H       1.039525     -0.000032     -0.684972
  H      -0.519324      0.899391     -0.685473
  H      -0.519335     -0.899422     -0.685129
  Cl     -0.000281     -0.000456     -2.912660
6
Coordinates from ORCA-job irc_IRC_Full E -960.327551432574
  C      -0.003319     -0.000105     -0.995181
  Cl      0.000767      0.000465      1.849163
  H       1.041527     -0.000031     -0.683534
  H      -0.519428      0.899734     -0.684462
  H      -0.519433     -0.899753     -0.684121
  Cl     -0.000217     -0.000455     -2.912575
6
Coordinates from ORCA-job irc_IRC_Full E -960.327152224885
  C      -0.000798     -0.000086     -0.982343
  Cl      0.000685      0.000460      1.825760
  H       1.045235     -0.000031     -0.679705
  H      -0.522443      0.904859     -0.680041
  H      -0.522457     -0.904892     -0.679695
  Cl     -0.000325     -0.000456     -2.914685
6
Coordinates from ORCA-job irc_IRC_Full E -960.325634420812
  C      -0.000963     -0.000087     -0.927861
  Cl      0.000638      0.000453      1.786186
  H       1.052177     -0.000030     -0.676735
  H      -0.525800      0.910579     -0.676718
  H      -0.525807     -0.910598     -0.676367
  Cl     -0.000348     -0.000462     -2.939212
6
Coordinates from ORCA-job irc_IRC_Full E -960.323330003081
  C      -0.000002     -0.000057     -0.867404
  Cl      0.000618      0.000446      1.753483
  H       1.064265     -0.000030     -0.675130
  H      -0.532307      0.921764     -0.674934
  H      -0.532324     -0.921799     -0.674577
  Cl     -0.000352     -0.000469     -2.972146
6
Coordinates from ORCA-job irc_IRC_Full E -960.321219608828
  C      -0.000116     -0.000047     -0.811302
  Cl      0.000593      0.000440      1.723913
  H       1.074679     -0.000030     -0.672964
  H      -0.537458      0.930778     -0.672784
  H      -0.537473     -0.930811     -0.672424
  Cl     -0.000328     -0.000476     -3.005147
6
Coordinates from ORCA-job irc_IRC_Full E -960.319457597593
  C      -0.000091     -0.000022     -0.665601
  Cl      0.000587      0.000436      1.698928
  H       1.074677     -0.000031     -0.665811
  H      -0.537459      0.930777     -0.665678
  H      -0.537475     -0.930812     -0.665318
  Cl     -0.000330     -0.000480     -3.030131
6
Coordinates from ORCA-job irc_IRC_Full E -960.321219607895
  C      -0.000066      0.000003     -0.519900
  Cl      0.000581      0.000432      1.673943
  H       1.074675     -0.000032     -0.658658
  H      -0.537460      0.930776     -0.658572
  H      -0.537477     -0.930813     -0.658212
  Cl     -0.000332     -0.000484     -3.055115
6
Coordinates from ORCA-job irc_IRC_Full E -960.323330025358
  C       0.000069      0.000014     -0.463799
  Cl      0.000543      0.000425      1.640943
  H       1.064264     -0.000032     -0.656487
  H      -0.532310      0.921763     -0.656420
  H      -0.532326     -0.921799     -0.656063
  Cl     -0.000320     -0.000490     -3.084687
6
Coordinates from ORCA-job irc_IRC_Full E -960.325634508161
  C      -0.000853      0.000031     -0.403341
  Cl      0.000534      0.000418      1.608008
  H       1.052167     -0.000031     -0.654876
  H      -0.525799      0.910572     -0.654634
  H      -0.525816     -0.910611     -0.654281
  Cl     -0.000313     -0.000497     -3.117390
6
Coordinates from ORCA-job irc_IRC_Full E -960.327152548149
  C      -0.000687      0.000038     -0.348866
  Cl      0.000546      0.000413      1.583481
  H       1.045227     -0.000031     -0.651900
  H      -0.522435      0.904845     -0.651303
  H      -0.522451     -0.904880     -0.650953
  Cl     -0.000280     -0.000504     -3.156974
6
Coordinates from ORCA-job irc_IRC_Full E -960.327551672985
  C      -0.003215      0.000046     -0.336018
  Cl      0.000654      0.000413      1.581368
  H       1.041516     -0.000030     -0.648067
  H      -0.519405      0.899699     -0.646873
  H      -0.519423     -0.899737     -0.646525
  Cl     -0.000207     -0.000509     -3.180399
6
Coordinates from ORCA-job irc_IRC_Full E -960.327655096879
  C      -0.001351      0.000043     -0.333653
  Cl      0.000589      0.000413      1.581454
  H       1.039523     -0.000029     -0.646636
  H      -0.519314      0.899381     -0.645874
  H      -0.519331     -0.899415     -0.645525
  Cl     -0.000196     -0.000510     -3.186280
6
Coordinates from ORCA-job irc_IRC_Full E -960.327847664885
  C       0.000084      0.000041     -0.327367
  Cl      0.000549      0.000413      1.581918
  H       1.037100     -0.000029     -0.643546
  H      -0.518823      0.898385     -0.643122
  H      -0.518838     -0.898416     -0.642773
  Cl     -0.000152     -0.000513     -3.201624
6
Coordinates from ORCA-job irc_IRC_Full E -960.328025052517
  C      -0.000631      0.000045     -0.320555
  Cl      0.000593      0.000414      1.583125
  H       1.036909     -0.000028     -0.640406
  H      -0.518421      0.897715     -0.639856
  H      -0.518438     -0.897747     -0.639508
  Cl     -0.000092     -0.000517     -3.219315
6
Coordinates from ORCA-job irc_IRC_Full E -960.328162151514
  C       0.000015      0.000043     -0.316145
  Cl      0.000572      0.000414      1.584977
  H       1.035569     -0.000027     -0.636781
  H      -0.518096      0.897055     -0.636392
  H      -0.518110     -0.897083     -0.636044
  Cl     -0.000030     -0.000520     -3.236129
6
Coordinates from ORCA-job irc_IRC_Full E -960.328273343444
  C      -0.000105      0.000045     -0.310520
  Cl      0.000578      0.000415      1.586829
  H       1.036045     -0.000027     -0.633486
  H      -0.518313      0.897409     -0.633069
  H      -0.518328     -0.897437     -0.632721
  Cl      0.000043     -0.000523     -3.253546
6
Coordinates from ORCA-job irc_IRC_Full E -960.328354862846
  C      -0.000311      0.000047     -0.306757
  Cl      0.000584      0.000415      1.588830
  H       1.035245     -0.000026     -0.629947
  H      -0.517850      0.896592     -0.629421
  H      -0.517865     -0.896621     -0.629074
  Cl      0.000117     -0.000527     -3.270146
